SumColouring/MiniZinc model/Experiments/12_0.65_3.col.dzn
% Data file generated from RandomInstances/12_0.65_3.col DIMACS file
size = 12;

chi = 4;

adjacency = [|0,1,1,0,0,1,1,1,1,1,0,0,
|1,0,1,1,1,0,0,0,0,1,0,1,
|1,1,0,1,0,1,1,1,1,1,1,0,
|0,1,1,0,1,1,1,1,1,1,0,1,
|0,1,0,1,0,1,0,1,1,0,0,1,
|1,0,1,1,1,0,0,1,0,1,1,0,
|1,0,1,1,0,0,0,0,0,0,0,1,
|1,0,1,1,1,1,0,0,1,0,1,0,
|1,0,1,1,1,0,0,1,0,1,1,1,
|1,1,1,1,0,1,0,0,1,0,0,0,
|0,0,1,0,0,1,0,1,1,0,0,1,
|0,1,0,1,1,0,1,0,1,0,1,0,
|];